7160
1 1 0 1 1 1 1 1 1 0 0 1 0 0 1 0 0 0 1 0 
0 0 0 0 0 0 0 1 1 1 1 6 6 6 6 3 3 3 3 3 3 4 4 4 4 4 4 4 4 5 5 5 5 5 5 5 5 5 0 0 3 3 11 8 18 14 18 7 18 5 8 8 11 18 18 18 14 6 7 7 3 3 0 8 18 7 8 11 7 7 18 3 18 8 14 14 8 14 1 7 